Version identifier: 22.1.0.0 | 2022-03-09 | 1a383f8ce
CPXPARAM_Threads                                 1
CPXPARAM_MIP_Strategy_VariableSelect             3
CPXPARAM_TimeLimit                               599.999975092
1 of 1 MIP starts provided solutions.
MIP start 'm1' defined initial solution with objective 43.0000.
Tried aggregator 2 times.
MIP Presolve eliminated 44 rows and 1 columns.
MIP Presolve added 36 rows and 9 columns.
MIP Presolve modified 48 coefficients.
Aggregator did 9 substitutions.
Reduced MIP has 4504 rows, 10500 columns, and 226123 nonzeros.
Reduced MIP has 10500 binaries, 0 generals, 0 SOSs, and 0 indicators.
Presolve time = 0.27 sec. (431.58 ticks)
Probing time = 0.03 sec. (27.50 ticks)
Tried aggregator 1 time.
Detecting symmetries...
MIP Presolve modified 15 coefficients.
Reduced MIP has 4504 rows, 10500 columns, and 226297 nonzeros.
Reduced MIP has 10500 binaries, 0 generals, 0 SOSs, and 0 indicators.
Presolve time = 0.20 sec. (343.25 ticks)
Probing time = 0.03 sec. (27.51 ticks)
Clique table members: 2992.
MIP emphasis: balance optimality and feasibility.
MIP search method: dynamic search.
Parallel mode: none, using 1 thread.
Root relaxation solution time = 2.96 sec. (3452.65 ticks)

        Nodes                                         Cuts/
   Node  Left     Objective  IInf  Best Integer    Best Bound    ItCnt     Gap

*     0+    0                           43.0000   125250.0000              --- 
      0     0      500.0000  2042       43.0000      500.0000     7709     --- 
*     0+    0                          263.0000      500.0000            90.11%
      0     0      500.0000   221      263.0000       Cuts: 6    11185   90.11%
      0     0      500.0000   441      263.0000     Cuts: 102    13971   90.11%
*     0+    0                          449.0000      500.0000            11.36%
*     0+    0                          500.0000      500.0000             0.00%
      0     0        cutoff            500.0000      500.0000    13971    0.00%
Elapsed time = 82.65 sec. (82380.85 ticks, tree = 0.01 MB, solutions = 4)

Clique cuts applied:  12
Zero-half cuts applied:  24
Lift and project cuts applied:  5
Gomory fractional cuts applied:  2

Root node processing (before b&c):
  Real time             =   82.65 sec. (82382.13 ticks)
Sequential b&c:
  Real time             =    0.00 sec. (0.00 ticks)
                          ------------
Total (root+branch&cut) =   82.65 sec. (82382.13 ticks)
Primal:	500
Dual:	500
Status:	Optimal
Time:	82.71
Sequence:
	19
	12
	5
	19
	12
	2
	19
	12
	2
	19
	6
	4
	19
	1
	6
	19
	18
	6
	16
	5
	15
	16
	5
	15
	16
	5
	15
	16
	5
	15
	16
	5
	15
	16
	1
	11
	3
	0
	11
	3
	13
	11
	3
	0
	11
	14
	0
	11
	3
	13
	15
	3
	0
	11
	3
	13
	11
	3
	0
	15
	3
	13
	11
	14
	0
	15
	3
	13
	11
	3
	13
	11
	14
	0
	11
	14
	13
	7
	8
	13
	7
	14
	13
	11
	3
	13
	7
	17
	0
	7
	8
	0
	7
	14
	0
	11
	14
	0
	11
	14
	13
	7
	8
	13
	7
	17
	13
	7
	8
	13
	5
	17
	10
	4
	17
	10
	4
	8
	10
	2
	3
	9
	5
	14
	9
	4
	14
	9
	4
	14
	9
	18
	3
	9
	4
	3
	9
	4
	3
	9
	5
	3
	10
	18
	17
	10
	1
	8
	10
	2
	17
	10
	4
	8
	10
	1
	8
	10
	18
	17
	7
	0
	17
	7
	13
	3
	11
	13
	3
	11
	0
	14
	11
	0
	14
	11
	13
	3
	11
	0
	3
	15
	0
	18
	8
	13
	7
	17
	0
	7
	8
	13
	7
	8
	0
	7
	17
	13
	7
	8
	0
	7
	17
	0
	7
	8
	13
	7
	8
	0
	18
	14
	9
	18
	14
	9
	18
	14
	9
	4
	14
	9
	18
	3
	9
	1
	3
	9
	4
	3
	9
	18
	14
	9
	2
	14
	9
	18
	14
	9
	4
	14
	9
	2
	14
	9
	4
	14
	10
	4
	8
	10
	2
	17
	10
	1
	14
	9
	18
	3
	9
	2
	14
	9
	18
	3
	9
	5
	14
	9
	2
	14
	9
	2
	14
	10
	4
	8
	10
	18
	17
	10
	4
	8
	10
	1
	17
	10
	1
	8
	10
	5
	8
	10
	4
	17
	10
	18
	17
	10
	18
	17
	10
	4
	8
	10
	5
	8
	10
	18
	17
	10
	18
	17
	10
	18
	6
	16
	1
	7
	16
	5
	15
	16
	5
	15
	16
	1
	6
	19
	2
	12
	19
	1
	18
	19
	12
	2
	19
	12
	2
	19
	4
	6
	19
	18
	6
	19
	2
	12
	19
	5
	12
	19
	1
	6
	19
	4
	6
	19
	1
	6
	19
	1
	6
	19
	2
	12
	19
	18
	6
	19
	18
	5
	19
	6
	4
	19
	6
	1
	16
	15
	5
	16
	15
	5
	16
	15
	5
	16
	15
	5
	16
	15
	5
	16
	7
	2
	16
	15
	5
	16
	15
	5
	16
	15
	5
	16
	6
	2
	19
	12
	5
	19
	12
	2
	19
	6
	18
	19
	12
	2
	19
	2
	6
	19
	18
	6
	16
	7
	6
	16
	1
	11
	3
	13
	11
	14
	4
	15
	16
	2
	6
	19
	2
	12
	19
	1
	6
	16
	7
	4
	13
	15
	3
	0
	18
	8
	10
	1
	8
	0
	2
	8
	7
	13
	8
	7
	13
	8
	5
	10
	8
	1
	18
	19
	12
	2
	10
	17
	18
	10
	18
	6
	19
	4
	6
	19
	5
	18
	19
	18
	2
	19
	2
	12
	19
	18
	6
	19
